; faust :: corpus-study/repo_src/faust/faust/streams.py :: EVENT 'Stream._passive_started' :: naive encoding (verdict: sat)
; Generated by snf-pipeline (encoder.py) -- run with any
; SMT-LIB2-compliant solver, e.g. `z3 faust__corpus-study_repo_src_faust_faust_streams.py__Stream._passive_started__naive.smt2`
; benchmark generated from python API
(set-info :status unknown)
(declare-fun ewake2_0 () Bool)
(assert
 (let (($x27 (not ewake2_0)))
(or $x27)))
(check-sat)
